Normalized Data/p04_18_normalized_splitx10_0.vrp
NAME:p04_18_NORMALIZED_splitx10_
BEST_KNOWN: 0
COMMENT: 0
DIMENSION: 628
CAPACITY: 1000
EDGE_WEIGHT_FORMAT: FUNCTION
EDGE_WEIGHT_TYPE: EXACT_2D
NODE_COORD_SECTION
1 0.00000 0.00000
2 -21 44
3 -21 44
4 33 1
5 33 1
6 33 1
7 33 1
8 -8 45
9 -8 45
10 2 -28
11 2 -28
12 2 -28
13 2 -28
14 40 -33
15 40 -33
16 40 -33
17 40 -33
18 40 -33
19 8 16
20 8 16
21 8 16
22 37 31
23 37 31
24 -36 -46
25 -36 -46
26 -36 -46
27 -36 -46
28 -36 -46
29 -36 -46
30 26 10
31 26 10
32 26 10
33 33 -50
34 33 -50
35 33 -50
36 33 -50
37 33 -50
38 33 -50
39 -20 5
40 -20 5
41 -20 5
42 -20 5
43 -20 5
44 -20 5
45 -20 5
46 -4 -23
47 -4 -23
48 -4 -23
49 50 -16
50 50 -16
51 50 -16
52 50 -16
53 50 -16
54 50 -16
55 18 4
56 18 4
57 18 4
58 18 4
59 -22 16
60 -22 16
61 13 -49
62 13 -49
63 13 -49
64 13 -49
65 13 -49
66 13 -49
67 -13 6
68 -13 6
69 -13 6
70 -1 49
71 -1 49
72 -1 49
73 -1 49
74 -1 49
75 15 -29
76 15 -29
77 15 -29
78 -43 35
79 -43 35
80 -43 35
81 -43 35
82 46 -45
83 46 -45
84 7 -19
85 7 -19
86 7 -19
87 7 -19
88 7 -19
89 -39 38
90 -39 38
91 -39 38
92 -39 38
93 -18 -48
94 -18 -48
95 -18 -48
96 -18 -48
97 -18 -48
98 44 46
99 44 46
100 44 46
101 44 46
102 44 46
103 44 46
104 -37 -12
105 -37 -12
106 -37 -12
107 15 27
108 15 27
109 15 27
110 9 -4
111 9 -4
112 9 -4
113 20 13
114 20 13
115 20 13
116 20 13
117 20 13
118 20 13
119 12 12
120 12 12
121 12 12
122 12 12
123 12 12
124 12 12
125 22 39
126 22 39
127 -2 -49
128 -2 -49
129 -2 -49
130 -2 -49
131 42 37
132 42 37
133 42 37
134 42 37
135 42 37
136 42 37
137 42 37
138 -50 43
139 -50 43
140 -50 43
141 -17 26
142 -17 26
143 -17 26
144 -17 26
145 -17 26
146 34 45
147 34 45
148 34 45
149 23 3
150 23 3
151 23 3
152 23 3
153 23 3
154 -48 -12
155 -48 -12
156 -48 -12
157 1 -21
158 1 -21
159 -4 -28
160 -4 -28
161 -4 -28
162 -4 -28
163 -29 30
164 -29 30
165 -29 30
166 -29 30
167 -29 30
168 -29 30
169 -36 -43
170 -36 -43
171 -36 -43
172 22 -19
173 22 -19
174 22 -19
175 22 -19
176 22 -19
177 45 2
178 45 2
179 45 2
180 41 -46
181 41 -46
182 41 -46
183 41 -46
184 -20 -31
185 -20 -31
186 -20 -31
187 -20 -31
188 -20 -31
189 -20 -31
190 17 -14
191 17 -14
192 17 -14
193 17 -14
194 17 -14
195 17 -14
196 -33 -17
197 -33 -17
198 -33 -17
199 6 -30
200 6 -30
201 6 -30
202 6 -30
203 6 -30
204 6 -30
205 30 -22
206 30 -22
207 30 -22
208 30 -22
209 30 -22
210 30 -22
211 20 16
212 20 16
213 20 16
214 20 16
215 20 16
216 20 16
217 20 16
218 -19 13
219 -19 13
220 -19 13
221 -19 13
222 4 25
223 -34 16
224 -34 16
225 -34 16
226 -34 16
227 -34 16
228 -34 16
229 -19 43
230 -19 43
231 -19 43
232 -19 43
233 -19 43
234 -28 9
235 -28 9
236 -13 11
237 -13 11
238 -13 11
239 -29 -49
240 -29 -49
241 -29 -49
242 -29 -49
243 27 30
244 27 30
245 27 30
246 41 2
247 41 2
248 41 2
249 41 2
250 41 2
251 1 30
252 1 30
253 1 30
254 1 30
255 1 30
256 -46 16
257 -46 16
258 -46 16
259 -46 16
260 -11 -10
261 -11 -10
262 -11 -10
263 -11 -10
264 1 -38
265 1 -38
266 1 -38
267 1 -38
268 -9 18
269 -9 18
270 -9 18
271 -9 18
272 -9 18
273 -9 18
274 -13 7
275 -13 7
276 -13 7
277 -13 7
278 -13 7
279 -13 7
280 -13 7
281 -19 28
282 -19 28
283 -19 28
284 21 -14
285 21 -14
286 21 -14
287 21 -14
288 21 -14
289 -43 -26
290 -43 -26
291 -48 6
292 -48 6
293 -48 6
294 -48 6
295 -48 6
296 -48 6
297 -17 -36
298 -17 -36
299 -17 -36
300 17 -36
301 17 -36
302 17 -36
303 -37 -43
304 -37 -43
305 -37 -43
306 -37 -43
307 -37 -43
308 27 -14
309 27 -14
310 27 -14
311 27 -14
312 27 -14
313 27 -14
314 -5 -19
315 -5 -19
316 30 -36
317 30 -36
318 30 -36
319 -43 -31
320 -43 -31
321 -43 -31
322 -43 -31
323 25 -20
324 25 -20
325 25 -20
326 25 -20
327 25 -20
328 -50 -33
329 -50 -33
330 -50 -33
331 -7 -4
332 -7 -4
333 -7 -4
334 -7 -4
335 -7 -4
336 -35 38
337 -35 38
338 -35 38
339 -25 32
340 -25 32
341 -25 32
342 -25 32
343 -25 32
344 -25 32
345 -25 32
346 18 46
347 18 46
348 18 46
349 18 46
350 43 47
351 43 47
352 -49 -37
353 -49 -37
354 -49 -37
355 -49 -37
356 -49 -37
357 -49 -37
358 12 39
359 12 39
360 12 39
361 12 39
362 12 39
363 12 39
364 -10 29
365 -10 29
366 -10 29
367 -10 29
368 -10 29
369 -10 29
370 32 -24
371 32 -24
372 32 -24
373 32 -24
374 32 -24
375 32 -24
376 36 15
377 36 15
378 36 15
379 36 15
380 36 15
381 36 15
382 -26 -27
383 -26 -27
384 -26 -27
385 -26 -27
386 -26 -27
387 -26 -27
388 -26 -27
389 -47 -50
390 -47 -50
391 -47 -50
392 -47 -50
393 13 -43
394 13 -43
395 13 -43
396 13 -43
397 13 -43
398 13 -43
399 -18 -36
400 -18 -36
401 -18 -36
402 -18 -36
403 -18 -36
404 -18 -36
405 -10 25
406 -10 25
407 -10 25
408 -10 25
409 -10 25
410 -10 25
411 -10 25
412 -22 -16
413 -22 -16
414 -22 -16
415 -22 -16
416 3 -42
417 3 -42
418 3 -42
419 3 -42
420 -31 -19
421 -31 -19
422 -31 -19
423 -31 -19
424 -31 -19
425 -31 -19
426 20 26
427 20 26
428 20 26
429 20 26
430 46 46
431 46 46
432 46 46
433 -36 13
434 -36 13
435 -36 13
436 -36 13
437 -36 13
438 -36 -42
439 -36 -42
440 -36 -42
441 -36 -42
442 47 -50
443 47 -50
444 -32 38
445 -32 38
446 -32 38
447 -32 38
448 -32 38
449 -32 38
450 46 44
451 46 44
452 46 44
453 46 44
454 -49 16
455 -49 16
456 -15 39
457 -15 39
458 -15 39
459 -15 39
460 -46 -43
461 -46 -43
462 28 31
463 28 31
464 28 31
465 28 31
466 -30 -9
467 -30 -9
468 -30 -9
469 -30 -9
470 40 19
471 40 19
472 40 19
473 40 19
474 40 19
475 28 -34
476 28 -34
477 28 -34
478 -19 31
479 -19 31
480 -19 31
481 -19 31
482 -29 -47
483 -29 -47
484 -29 -47
485 -29 -47
486 -7 -6
487 -7 -6
488 -7 -6
489 -7 -6
490 -7 -6
491 -7 -6
492 -13 1
493 -13 1
494 -13 1
495 -13 1
496 -45 32
497 -45 32
498 -45 32
499 -45 32
500 -45 32
501 1 26
502 1 26
503 1 26
504 -23 -41
505 -23 -41
506 -16 -28
507 -16 -28
508 -16 -28
509 -16 -28
510 -16 -28
511 -16 -28
512 14 -38
513 14 -38
514 14 -38
515 14 -38
516 -30 4
517 -30 4
518 -30 4
519 -30 4
520 -30 4
521 -30 4
522 -29 -44
523 -29 -44
524 -29 -44
525 -29 -44
526 -29 -44
527 -29 -44
528 -45 50
529 -45 50
530 -13 -12
531 -13 -12
532 -13 -12
533 -13 -12
534 47 19
535 47 19
536 47 19
537 16 -19
538 16 -19
539 16 -19
540 16 -19
541 16 -19
542 -29 -40
543 -29 -40
544 -29 -40
545 -24 -34
546 -24 -34
547 -24 -34
548 12 -39
549 12 -39
550 12 -39
551 -1 1
552 -1 1
553 -1 1
554 5 1
555 5 1
556 5 1
557 -44 40
558 -44 40
559 -44 40
560 -44 40
561 28 46
562 28 46
563 28 46
564 28 46
565 28 46
566 28 46
567 -35 -13
568 -35 -13
569 -35 -13
570 -11 -7
571 -11 -7
572 -11 -7
573 -11 -7
574 -11 -7
575 -12 -5
576 -12 -5
577 -12 -5
578 -12 -5
579 -12 -5
580 -12 -5
581 -36 -31
582 -36 -31
583 -36 -31
584 -36 -31
585 -36 -31
586 -36 -31
587 0 -12
588 0 -12
589 0 -12
590 0 -12
591 -30 31
592 -30 31
593 11 20
594 11 20
595 11 20
596 11 20
597 11 20
598 11 20
599 35 21
600 35 21
601 35 21
602 35 21
603 -7 -36
604 -7 -36
605 -7 -36
606 -7 -36
607 -7 -36
608 -31 -37
609 -31 -37
610 -31 -37
611 18 39
612 18 39
613 -12 -46
614 -12 -46
615 -12 -46
616 -12 -46
617 50 19
618 -24 -34
619 -24 -34
620 -24 -34
621 -24 -34
622 -24 -34
623 -25 46
624 -25 46
625 -13 28
626 -13 28
627 40 5
628 40 5
DEMAND_SECTION
1 0
2 200
3 200
4 200
5 10
6 10
7 10
8 200
9 10
10 200
11 10
12 10
13 10
14 100
15 50
16 10
17 10
18 10
19 100
20 50
21 10
22 200
23 200
24 200
25 200
26 10
27 10
28 10
29 10
30 200
31 200
32 100
33 200
34 200
35 10
36 10
37 10
38 10
39 200
40 200
41 50
42 10
43 10
44 10
45 10
46 200
47 100
48 10
49 200
50 100
51 50
52 10
53 10
54 10
55 200
56 50
57 10
58 10
59 200
60 100
61 200
62 200
63 10
64 10
65 10
66 10
67 100
68 10
69 10
70 200
71 200
72 50
73 10
74 10
75 200
76 10
77 10
78 200
79 100
80 10
81 10
82 100
83 50
84 200
85 100
86 50
87 10
88 10
89 200
90 100
91 10
92 10
93 200
94 100
95 50
96 10
97 10
98 200
99 50
100 10
101 10
102 10
103 10
104 200
105 10
106 10
107 200
108 50
109 10
110 200
111 100
112 10
113 200
114 100
115 10
116 10
117 10
118 10
119 200
120 50
121 10
122 10
123 10
124 10
125 200
126 50
127 200
128 200
129 10
130 10
131 200
132 100
133 50
134 10
135 10
136 10
137 10
138 200
139 50
140 10
141 200
142 100
143 10
144 10
145 10
146 200
147 10
148 10
149 200
150 50
151 10
152 10
153 10
154 200
155 100
156 10
157 200
158 200
159 100
160 10
161 10
162 10
163 200
164 200
165 50
166 10
167 10
168 10
169 200
170 200
171 50
172 100
173 10
174 10
175 10
176 10
177 200
178 100
179 50
180 200
181 100
182 10
183 10
184 200
185 100
186 50
187 10
188 10
189 10
190 200
191 200
192 10
193 10
194 10
195 10
196 200
197 200
198 100
199 200
200 100
201 10
202 10
203 10
204 10
205 200
206 50
207 10
208 10
209 10
210 10
211 200
212 200
213 50
214 10
215 10
216 10
217 10
218 200
219 10
220 10
221 10
222 200
223 200
224 100
225 10
226 10
227 10
228 10
229 200
230 50
231 10
232 10
233 10
234 200
235 50
236 200
237 200
238 10
239 200
240 10
241 10
242 10
243 200
244 200
245 100
246 200
247 200
248 10
249 10
250 10
251 200
252 100
253 10
254 10
255 10
256 200
257 50
258 10
259 10
260 200
261 100
262 10
263 10
264 200
265 100
266 10
267 10
268 100
269 50
270 10
271 10
272 10
273 10
274 200
275 100
276 50
277 10
278 10
279 10
280 10
281 200
282 200
283 10
284 200
285 10
286 10
287 10
288 10
289 200
290 100
291 100
292 50
293 10
294 10
295 10
296 10
297 200
298 100
299 10
300 200
301 10
302 10
303 200
304 100
305 10
306 10
307 10
308 200
309 50
310 10
311 10
312 10
313 10
314 100
315 50
316 200
317 200
318 100
319 200
320 200
321 50
322 10
323 200
324 200
325 50
326 10
327 10
328 200
329 10
330 10
331 200
332 200
333 50
334 10
335 10
336 200
337 100
338 10
339 200
340 200
341 50
342 10
343 10
344 10
345 10
346 200
347 100
348 50
349 10
350 200
351 50
352 200
353 50
354 10
355 10
356 10
357 10
358 100
359 50
360 10
361 10
362 10
363 10
364 100
365 50
366 10
367 10
368 10
369 10
370 200
371 200
372 10
373 10
374 10
375 10
376 200
377 200
378 10
379 10
380 10
381 10
382 200
383 200
384 50
385 10
386 10
387 10
388 10
389 200
390 200
391 50
392 10
393 200
394 50
395 10
396 10
397 10
398 10
399 200
400 100
401 50
402 10
403 10
404 10
405 200
406 200
407 50
408 10
409 10
410 10
411 10
412 200
413 100
414 50
415 10
416 200
417 200
418 50
419 10
420 200
421 200
422 10
423 10
424 10
425 10
426 200
427 10
428 10
429 10
430 200
431 200
432 50
433 200
434 50
435 10
436 10
437 10
438 200
439 50
440 10
441 10
442 200
443 200
444 200
445 100
446 10
447 10
448 10
449 10
450 100
451 10
452 10
453 10
454 200
455 50
456 100
457 50
458 10
459 10
460 200
461 200
462 200
463 10
464 10
465 10
466 200
467 200
468 50
469 10
470 200
471 50
472 10
473 10
474 10
475 100
476 50
477 10
478 200
479 100
480 10
481 10
482 200
483 50
484 10
485 10
486 100
487 50
488 10
489 10
490 10
491 10
492 200
493 50
494 10
495 10
496 200
497 100
498 10
499 10
500 10
501 100
502 50
503 10
504 200
505 10
506 200
507 100
508 50
509 10
510 10
511 10
512 200
513 200
514 50
515 10
516 100
517 50
518 10
519 10
520 10
521 10
522 200
523 200
524 10
525 10
526 10
527 10
528 200
529 50
530 100
531 50
532 10
533 10
534 200
535 100
536 10
537 200
538 100
539 50
540 10
541 10
542 100
543 50
544 10
545 200
546 100
547 50
548 200
549 200
550 100
551 200
552 10
553 10
554 200
555 100
556 50
557 200
558 10
559 10
560 10
561 200
562 200
563 10
564 10
565 10
566 10
567 200
568 10
569 10
570 200
571 50
572 10
573 10
574 10
575 100
576 50
577 10
578 10
579 10
580 10
581 200
582 100
583 50
584 10
585 10
586 10
587 200
588 100
589 50
590 10
591 200
592 50
593 200
594 100
595 10
596 10
597 10
598 10
599 100
600 10
601 10
602 10
603 200
604 100
605 10
606 10
607 10
608 200
609 100
610 50
611 200
612 100
613 200
614 10
615 10
616 10
617 200
618 200
619 100
620 50
621 10
622 10
623 200
624 200
625 100
626 50
627 100
628 50
DEPOT_SECTION
1
-1
EOF