Normalized Data/p04_18_normalized_splitx10_0.sol
627 -6 4 5 247 248 246 249 245 176 177 178 627 626 -7 8 71 72 70 69 73 251 501 500 502 -10 12 549 548 547 511 514 512 513 -19 18 610 611 347 348 345 346 361 357 360 362 359 358 -20 108 107 124 125 561 562 564 563 560 565 145 146 147 -22 21 450 451 449 452 431 429 430 -30 29 31 54 110 109 -34 36 32 35 37 33 14 15 16 17 50 53 49 48 52 51 111 -38 44 41 39 40 42 43 234 233 517 518 520 519 515 516 493 494 492 -57 55 56 149 152 150 151 148 3 375 376 378 379 377 380 -67 66 68 222 227 223 225 224 226 59 58 220 217 218 219 -75 76 74 316 315 317 475 474 476 171 173 -85 86 84 87 83 537 539 540 536 538 192 194 189 -90 89 91 88 80 77 79 78 496 498 497 495 499 -104 105 155 153 154 288 289 585 580 582 581 -113 117 112 116 115 114 216 214 211 215 210 121 118 123 -120 119 122 349 350 99 101 100 98 97 102 135 130 133 131 132 134 136 -141 446 448 443 447 444 445 336 337 335 590 591 -142 143 140 144 280 282 281 478 479 480 477 270 271 269 -156 157 9 11 46 45 47 314 -159 161 160 158 604 605 606 602 603 126 127 128 129 265 266 264 -165 164 163 162 167 166 343 338 340 339 341 344 342 -169 302 26 23 28 25 27 24 542 543 541 -179 182 180 181 442 441 82 81 13 206 207 -184 186 183 187 188 185 617 546 544 619 545 -193 191 190 174 172 175 322 326 324 325 323 283 284 287 286 285 -197 195 196 421 423 424 422 420 419 414 413 -203 199 201 202 198 200 418 415 417 416 263 -209 204 208 205 372 371 374 370 369 373 307 312 311 309 310 308 -212 213 601 598 600 599 471 469 473 470 472 534 533 535 616 -221 250 253 252 254 106 592 596 594 597 595 593 -228 229 528 527 139 138 137 559 557 558 556 -235 236 237 273 279 275 276 274 278 277 491 -241 239 238 240 483 482 481 484 522 525 524 523 521 526 -244 243 242 462 461 463 464 428 425 426 427 -267 272 268 625 624 365 368 363 367 364 366 404 407 406 405 408 409 410 -295 290 294 291 293 292 453 454 257 255 256 258 433 435 432 434 436 -297 296 298 399 400 402 403 398 401 506 505 508 -299 300 301 65 62 64 63 61 60 393 392 394 395 396 397 -303 305 306 304 389 388 391 390 459 460 -313 507 509 510 504 503 95 96 92 94 93 612 613 615 614 -319 318 320 321 327 329 328 352 353 354 351 355 356 583 584 -334 333 330 331 332 588 589 586 587 -411 412 384 386 382 383 381 385 387 529 530 531 532 -458 455 457 456 231 230 232 1 2 622 623 -467 465 468 466 103 566 567 568 -487 488 490 485 489 486 261 260 259 262 570 573 572 571 569 578 575 574 577 579 576 -550 -551 552 -553 554 555 -608 607 609 437 440 439 438 170 168 618 620 621 0 





OBJ=
4483.305
BEST_KNOWN=
0.000